NAME          neos-5140963-mincio
ROWS
 E  R0001
 E  R0002
 E  R0003
 E  R0004
 E  R0005
 E  R0006
 E  R0007
 E  R0008
 E  R0009
 E  R0010
 E  R0011
 E  R0012
 E  R0013
 E  R0014
 E  R0015
 E  R0016
 E  R0017
 E  R0018
 E  R0019
 E  R0020
 E  R0021
 E  R0022
 E  R0023
 E  R0024
 E  R0025
 E  R0026
 E  R0027
 E  R0028
 L  R0029
 L  R0030
 L  R0031
 L  R0032
 L  R0033
 L  R0034
 L  R0035
 L  R0036
 L  R0037
 L  R0038
 L  R0039
 L  R0040
 L  R0041
 L  R0042
 L  R0043
 L  R0044
 L  R0045
 L  R0046
 L  R0047
 L  R0048
 L  R0049
 L  R0050
 L  R0051
 L  R0052
 L  R0053
 L  R0054
 L  R0055
 L  R0056
 L  R0057
 L  R0058
 L  R0059
 L  R0060
 L  R0061
 L  R0062
 L  R0063
 L  R0064
 L  R0065
 L  R0066
 L  R0067
 L  R0068
 L  R0069
 L  R0070
 L  R0071
 L  R0072
 L  R0073
 L  R0074
 L  R0075
 L  R0076
 L  R0077
 L  R0078
 L  R0079
 L  R0080
 L  R0081
 L  R0082
 L  R0083
 L  R0084
 L  R0085
 L  R0086
 L  R0087
 L  R0088
 L  R0089
 L  R0090
 L  R0091
 L  R0092
 L  R0093
 L  R0094
 L  R0095
 L  R0096
 L  R0097
 L  R0098
 L  R0099
 L  R0100
 L  R0101
 L  R0102
 L  R0103
 L  R0104
 L  R0105
 L  R0106
 L  R0107
 L  R0108
 L  R0109
 L  R0110
 L  R0111
 L  R0112
 L  R0113
 L  R0114
 L  R0115
 L  R0116
 L  R0117
 L  R0118
 L  R0119
 L  R0120
 L  R0121
 L  R0122
 L  R0123
 L  R0124
 L  R0125
 L  R0126
 L  R0127
 L  R0128
 L  R0129
 L  R0130
 L  R0131
 L  R0132
 L  R0133
 L  R0134
 L  R0135
 L  R0136
 L  R0137
 L  R0138
 L  R0139
 L  R0140
 L  R0141
 L  R0142
 L  R0143
 L  R0144
 L  R0145
 L  R0146
 L  R0147
 L  R0148
 L  R0149
 L  R0150
 L  R0151
 L  R0152
 L  R0153
 L  R0154
 L  R0155
 L  R0156
 L  R0157
 L  R0158
 L  R0159
 L  R0160
 L  R0161
 L  R0162
 L  R0163
 L  R0164
 L  R0165
 L  R0166
 L  R0167
 L  R0168
 L  R0169
 L  R0170
 L  R0171
 L  R0172
 L  R0173
 L  R0174
 L  R0175
 L  R0176
 L  R0177
 L  R0178
 L  R0179
 L  R0180
 L  R0181
 L  R0182
 L  R0183
 L  R0184
 N  R0185
COLUMNS
    C0001     R0029     1
    C0001     R0030     1
    C0001     R0031     1
    C0001     R0032     1
    C0001     R0033     1
    C0001     R0034     1
    C0001     R0035     1
    C0001     R0036     1
    C0001     R0037     1
    C0001     R0038     1
    C0001     R0039     1
    C0001     R0040     1
    C0001     R0041     -1
    C0001     R0053     -1
    C0001     R0065     -1
    C0001     R0077     -1
    C0001     R0089     -1
    C0001     R0101     -1
    C0001     R0113     -1
    C0001     R0125     -1
    C0001     R0137     -1
    C0001     R0149     -1
    C0001     R0161     -1
    C0001     R0173     -1
    C0002     R0029     -1
    C0002     R0041     1
    C0002     R0042     1
    C0002     R0043     1
    C0002     R0044     1
    C0002     R0045     1
    C0002     R0046     1
    C0002     R0047     1
    C0002     R0048     1
    C0002     R0049     1
    C0002     R0050     1
    C0002     R0051     1
    C0002     R0052     1
    C0002     R0054     -1
    C0002     R0066     -1
    C0002     R0078     -1
    C0002     R0090     -1
    C0002     R0102     -1
    C0002     R0114     -1
    C0002     R0126     -1
    C0002     R0138     -1
    C0002     R0150     -1
    C0002     R0162     -1
    C0002     R0174     -1
    C0003     R0030     -1
    C0003     R0042     -1
    C0003     R0053     1
    C0003     R0054     1
    C0003     R0055     1
    C0003     R0056     1
    C0003     R0057     1
    C0003     R0058     1
    C0003     R0059     1
    C0003     R0060     1
    C0003     R0061     1
    C0003     R0062     1
    C0003     R0063     1
    C0003     R0064     1
    C0003     R0067     -1
    C0003     R0079     -1
    C0003     R0091     -1
    C0003     R0103     -1
    C0003     R0115     -1
    C0003     R0127     -1
    C0003     R0139     -1
    C0003     R0151     -1
    C0003     R0163     -1
    C0003     R0175     -1
    C0004     R0031     -1
    C0004     R0043     -1
    C0004     R0055     -1
    C0004     R0065     1
    C0004     R0066     1
    C0004     R0067     1
    C0004     R0068     1
    C0004     R0069     1
    C0004     R0070     1
    C0004     R0071     1
    C0004     R0072     1
    C0004     R0073     1
    C0004     R0074     1
    C0004     R0075     1
    C0004     R0076     1
    C0004     R0080     -1
    C0004     R0092     -1
    C0004     R0104     -1
    C0004     R0116     -1
    C0004     R0128     -1
    C0004     R0140     -1
    C0004     R0152     -1
    C0004     R0164     -1
    C0004     R0176     -1
    C0005     R0032     -1
    C0005     R0044     -1
    C0005     R0056     -1
    C0005     R0068     -1
    C0005     R0077     1
    C0005     R0078     1
    C0005     R0079     1
    C0005     R0080     1
    C0005     R0081     1
    C0005     R0082     1
    C0005     R0083     1
    C0005     R0084     1
    C0005     R0085     1
    C0005     R0086     1
    C0005     R0087     1
    C0005     R0088     1
    C0005     R0093     -1
    C0005     R0105     -1
    C0005     R0117     -1
    C0005     R0129     -1
    C0005     R0141     -1
    C0005     R0153     -1
    C0005     R0165     -1
    C0005     R0177     -1
    C0006     R0033     -1
    C0006     R0045     -1
    C0006     R0057     -1
    C0006     R0069     -1
    C0006     R0081     -1
    C0006     R0089     1
    C0006     R0090     1
    C0006     R0091     1
    C0006     R0092     1
    C0006     R0093     1
    C0006     R0094     1
    C0006     R0095     1
    C0006     R0096     1
    C0006     R0097     1
    C0006     R0098     1
    C0006     R0099     1
    C0006     R0100     1
    C0006     R0106     -1
    C0006     R0118     -1
    C0006     R0130     -1
    C0006     R0142     -1
    C0006     R0154     -1
    C0006     R0166     -1
    C0006     R0178     -1
    C0007     R0034     -1
    C0007     R0046     -1
    C0007     R0058     -1
    C0007     R0070     -1
    C0007     R0082     -1
    C0007     R0094     -1
    C0007     R0101     1
    C0007     R0102     1
    C0007     R0103     1
    C0007     R0104     1
    C0007     R0105     1
    C0007     R0106     1
    C0007     R0107     1
    C0007     R0108     1
    C0007     R0109     1
    C0007     R0110     1
    C0007     R0111     1
    C0007     R0112     1
    C0007     R0119     -1
    C0007     R0131     -1
    C0007     R0143     -1
    C0007     R0155     -1
    C0007     R0167     -1
    C0007     R0179     -1
    C0008     R0035     -1
    C0008     R0047     -1
    C0008     R0059     -1
    C0008     R0071     -1
    C0008     R0083     -1
    C0008     R0095     -1
    C0008     R0107     -1
    C0008     R0113     1
    C0008     R0114     1
    C0008     R0115     1
    C0008     R0116     1
    C0008     R0117     1
    C0008     R0118     1
    C0008     R0119     1
    C0008     R0120     1
    C0008     R0121     1
    C0008     R0122     1
    C0008     R0123     1
    C0008     R0124     1
    C0008     R0132     -1
    C0008     R0144     -1
    C0008     R0156     -1
    C0008     R0168     -1
    C0008     R0180     -1
    C0009     R0036     -1
    C0009     R0048     -1
    C0009     R0060     -1
    C0009     R0072     -1
    C0009     R0084     -1
    C0009     R0096     -1
    C0009     R0108     -1
    C0009     R0120     -1
    C0009     R0125     1
    C0009     R0126     1
    C0009     R0127     1
    C0009     R0128     1
    C0009     R0129     1
    C0009     R0130     1
    C0009     R0131     1
    C0009     R0132     1
    C0009     R0133     1
    C0009     R0134     1
    C0009     R0135     1
    C0009     R0136     1
    C0009     R0145     -1
    C0009     R0157     -1
    C0009     R0169     -1
    C0009     R0181     -1
    C0010     R0037     -1
    C0010     R0049     -1
    C0010     R0061     -1
    C0010     R0073     -1
    C0010     R0085     -1
    C0010     R0097     -1
    C0010     R0109     -1
    C0010     R0121     -1
    C0010     R0133     -1
    C0010     R0137     1
    C0010     R0138     1
    C0010     R0139     1
    C0010     R0140     1
    C0010     R0141     1
    C0010     R0142     1
    C0010     R0143     1
    C0010     R0144     1
    C0010     R0145     1
    C0010     R0146     1
    C0010     R0147     1
    C0010     R0148     1
    C0010     R0158     -1
    C0010     R0170     -1
    C0010     R0182     -1
    C0011     R0038     -1
    C0011     R0050     -1
    C0011     R0062     -1
    C0011     R0074     -1
    C0011     R0086     -1
    C0011     R0098     -1
    C0011     R0110     -1
    C0011     R0122     -1
    C0011     R0134     -1
    C0011     R0146     -1
    C0011     R0149     1
    C0011     R0150     1
    C0011     R0151     1
    C0011     R0152     1
    C0011     R0153     1
    C0011     R0154     1
    C0011     R0155     1
    C0011     R0156     1
    C0011     R0157     1
    C0011     R0158     1
    C0011     R0159     1
    C0011     R0160     1
    C0011     R0171     -1
    C0011     R0183     -1
    C0012     R0039     -1
    C0012     R0051     -1
    C0012     R0063     -1
    C0012     R0075     -1
    C0012     R0087     -1
    C0012     R0099     -1
    C0012     R0111     -1
    C0012     R0123     -1
    C0012     R0135     -1
    C0012     R0147     -1
    C0012     R0159     -1
    C0012     R0161     1
    C0012     R0162     1
    C0012     R0163     1
    C0012     R0164     1
    C0012     R0165     1
    C0012     R0166     1
    C0012     R0167     1
    C0012     R0168     1
    C0012     R0169     1
    C0012     R0170     1
    C0012     R0171     1
    C0012     R0172     1
    C0012     R0184     -1
    C0013     R0040     -1
    C0013     R0052     -1
    C0013     R0064     -1
    C0013     R0076     -1
    C0013     R0088     -1
    C0013     R0100     -1
    C0013     R0112     -1
    C0013     R0124     -1
    C0013     R0136     -1
    C0013     R0148     -1
    C0013     R0160     -1
    C0013     R0172     -1
    C0013     R0173     1
    C0013     R0174     1
    C0013     R0175     1
    C0013     R0176     1
    C0013     R0177     1
    C0013     R0178     1
    C0013     R0179     1
    C0013     R0180     1
    C0013     R0181     1
    C0013     R0182     1
    C0013     R0183     1
    C0013     R0184     1
    INT1      'MARKER'                 'INTORG'
    C0014     R0001     1
    C0014     R0015     1
    C0014     R0185     99999
    C0015     R0001     1
    C0015     R0016     1
    C0015     R0185     2373
    C0016     R0001     1
    C0016     R0017     1
    C0016     R0185     3792
    C0017     R0001     1
    C0017     R0018     1
    C0017     R0185     4660
    C0018     R0001     1
    C0018     R0019     1
    C0018     R0185     5847
    C0019     R0001     1
    C0019     R0020     1
    C0019     R0185     5806
    C0020     R0001     1
    C0020     R0021     1
    C0020     R0185     5655
    C0021     R0001     1
    C0021     R0022     1
    C0021     R0185     5680
    C0022     R0001     1
    C0022     R0023     1
    C0022     R0185     5742
    C0023     R0001     1
    C0023     R0024     1
    C0023     R0185     5804
    C0024     R0001     1
    C0024     R0025     1
    C0024     R0185     5172
    C0025     R0001     1
    C0025     R0026     1
    C0025     R0185     4471
    C0026     R0001     1
    C0026     R0027     1
    C0026     R0185     4672
    C0027     R0001     1
    C0027     R0028     1
    C0027     R0185     5573
    C0028     R0002     1
    C0028     R0015     1
    C0028     R0185     2373
    C0029     R0002     1
    C0029     R0017     1
    C0029     R0029     14
    C0029     R0185     2079
    C0030     R0002     1
    C0030     R0018     1
    C0030     R0030     14
    C0030     R0185     2947
    C0031     R0002     1
    C0031     R0019     1
    C0031     R0031     14
    C0031     R0185     4134
    C0032     R0002     1
    C0032     R0020     1
    C0032     R0032     14
    C0032     R0185     4093
    C0033     R0002     1
    C0033     R0021     1
    C0033     R0033     14
    C0033     R0185     3942
    C0034     R0002     1
    C0034     R0022     1
    C0034     R0034     14
    C0034     R0185     3967
    C0035     R0002     1
    C0035     R0023     1
    C0035     R0035     14
    C0035     R0185     4029
    C0036     R0002     1
    C0036     R0024     1
    C0036     R0036     14
    C0036     R0185     4091
    C0037     R0002     1
    C0037     R0025     1
    C0037     R0037     14
    C0037     R0185     3459
    C0038     R0002     1
    C0038     R0026     1
    C0038     R0038     14
    C0038     R0185     2758
    C0039     R0002     1
    C0039     R0027     1
    C0039     R0039     14
    C0039     R0185     2973
    C0040     R0002     1
    C0040     R0028     1
    C0040     R0040     14
    C0040     R0185     3860
    C0041     R0003     1
    C0041     R0015     1
    C0041     R0185     3792
    C0042     R0003     1
    C0042     R0016     1
    C0042     R0041     14
    C0042     R0185     2079
    C0043     R0003     1
    C0043     R0018     1
    C0043     R0042     14
    C0043     R0185     868
    C0044     R0003     1
    C0044     R0019     1
    C0044     R0043     14
    C0044     R0185     2037
    C0045     R0003     1
    C0045     R0020     1
    C0045     R0044     14
    C0045     R0185     1995
    C0046     R0003     1
    C0046     R0021     1
    C0046     R0045     14
    C0046     R0185     1844
    C0047     R0003     1
    C0047     R0022     1
    C0047     R0046     14
    C0047     R0185     1869
    C0048     R0003     1
    C0048     R0023     1
    C0048     R0047     14
    C0048     R0185     1931
    C0049     R0003     1
    C0049     R0024     1
    C0049     R0048     14
    C0049     R0185     1994
    C0050     R0003     1
    C0050     R0025     1
    C0050     R0049     14
    C0050     R0185     1361
    C0051     R0003     1
    C0051     R0026     1
    C0051     R0050     14
    C0051     R0185     660
    C0052     R0003     1
    C0052     R0027     1
    C0052     R0051     14
    C0052     R0185     922
    C0053     R0003     1
    C0053     R0028     1
    C0053     R0052     14
    C0053     R0185     1762
    C0054     R0004     1
    C0054     R0015     1
    C0054     R0185     4660
    C0055     R0004     1
    C0055     R0016     1
    C0055     R0053     14
    C0055     R0185     2947
    C0056     R0004     1
    C0056     R0017     1
    C0056     R0054     14
    C0056     R0185     868
    C0057     R0004     1
    C0057     R0019     1
    C0057     R0055     14
    C0057     R0185     1437
    C0058     R0004     1
    C0058     R0020     1
    C0058     R0056     14
    C0058     R0185     1395
    C0059     R0004     1
    C0059     R0021     1
    C0059     R0057     14
    C0059     R0185     1237
    C0060     R0004     1
    C0060     R0022     1
    C0060     R0058     14
    C0060     R0185     1269
    C0061     R0004     1
    C0061     R0023     1
    C0061     R0059     14
    C0061     R0185     1331
    C0062     R0004     1
    C0062     R0024     1
    C0062     R0060     14
    C0062     R0185     1394
    C0063     R0004     1
    C0063     R0025     1
    C0063     R0061     14
    C0063     R0185     1164
    C0064     R0004     1
    C0064     R0026     1
    C0064     R0062     14
    C0064     R0185     459
    C0065     R0004     1
    C0065     R0027     1
    C0065     R0063     14
    C0065     R0185     761
    C0066     R0004     1
    C0066     R0028     1
    C0066     R0064     14
    C0066     R0185     1551
    C0067     R0005     1
    C0067     R0015     1
    C0067     R0185     5847
    C0068     R0005     1
    C0068     R0016     1
    C0068     R0065     14
    C0068     R0185     4134
    C0069     R0005     1
    C0069     R0017     1
    C0069     R0066     14
    C0069     R0185     2037
    C0070     R0005     1
    C0070     R0018     1
    C0070     R0067     14
    C0070     R0185     1437
    C0071     R0005     1
    C0071     R0020     1
    C0071     R0068     14
    C0071     R0185     42
    C0072     R0005     1
    C0072     R0021     1
    C0072     R0069     14
    C0072     R0185     276
    C0073     R0005     1
    C0073     R0022     1
    C0073     R0070     14
    C0073     R0185     490
    C0074     R0005     1
    C0074     R0023     1
    C0074     R0071     14
    C0074     R0185     552
    C0075     R0005     1
    C0075     R0024     1
    C0075     R0072     14
    C0075     R0185     615
    C0076     R0005     1
    C0076     R0025     1
    C0076     R0073     14
    C0076     R0185     1340
    C0077     R0005     1
    C0077     R0026     1
    C0077     R0074     14
    C0077     R0185     1423
    C0078     R0005     1
    C0078     R0027     1
    C0078     R0075     14
    C0078     R0185     1492
    C0079     R0005     1
    C0079     R0028     1
    C0079     R0076     14
    C0079     R0185     1426
    C0080     R0006     1
    C0080     R0015     1
    C0080     R0185     5806
    C0081     R0006     1
    C0081     R0016     1
    C0081     R0077     14
    C0081     R0185     4093
    C0082     R0006     1
    C0082     R0017     1
    C0082     R0078     14
    C0082     R0185     1995
    C0083     R0006     1
    C0083     R0018     1
    C0083     R0079     14
    C0083     R0185     1395
    C0084     R0006     1
    C0084     R0019     1
    C0084     R0080     14
    C0084     R0185     42
    C0085     R0006     1
    C0085     R0021     1
    C0085     R0081     14
    C0085     R0185     234
    C0086     R0006     1
    C0086     R0022     1
    C0086     R0082     14
    C0086     R0185     449
    C0087     R0006     1
    C0087     R0023     1
    C0087     R0083     14
    C0087     R0185     511
    C0088     R0006     1
    C0088     R0024     1
    C0088     R0084     14
    C0088     R0185     573
    C0089     R0006     1
    C0089     R0025     1
    C0089     R0085     14
    C0089     R0185     1299
    C0090     R0006     1
    C0090     R0026     1
    C0090     R0086     14
    C0090     R0185     1382
    C0091     R0006     1
    C0091     R0027     1
    C0091     R0087     14
    C0091     R0185     1451
    C0092     R0006     1
    C0092     R0028     1
    C0092     R0088     14
    C0092     R0185     1385
    C0093     R0007     1
    C0093     R0015     1
    C0093     R0185     5655
    C0094     R0007     1
    C0094     R0016     1
    C0094     R0089     14
    C0094     R0185     3942
    C0095     R0007     1
    C0095     R0017     1
    C0095     R0090     14
    C0095     R0185     1844
    C0096     R0007     1
    C0096     R0018     1
    C0096     R0091     14
    C0096     R0185     1237
    C0097     R0007     1
    C0097     R0019     1
    C0097     R0092     14
    C0097     R0185     276
    C0098     R0007     1
    C0098     R0020     1
    C0098     R0093     14
    C0098     R0185     234
    C0099     R0007     1
    C0099     R0022     1
    C0099     R0094     14
    C0099     R0185     307
    C0100     R0007     1
    C0100     R0023     1
    C0100     R0095     14
    C0100     R0185     369
    C0101     R0007     1
    C0101     R0024     1
    C0101     R0096     14
    C0101     R0185     432
    C0102     R0007     1
    C0102     R0025     1
    C0102     R0097     14
    C0102     R0185     1148
    C0103     R0007     1
    C0103     R0026     1
    C0103     R0098     14
    C0103     R0185     1231
    C0104     R0007     1
    C0104     R0027     1
    C0104     R0099     14
    C0104     R0185     1300
    C0105     R0007     1
    C0105     R0028     1
    C0105     R0100     14
    C0105     R0185     1244
    C0106     R0008     1
    C0106     R0015     1
    C0106     R0185     5680
    C0107     R0008     1
    C0107     R0016     1
    C0107     R0101     14
    C0107     R0185     3967
    C0108     R0008     1
    C0108     R0017     1
    C0108     R0102     14
    C0108     R0185     1869
    C0109     R0008     1
    C0109     R0018     1
    C0109     R0103     14
    C0109     R0185     1269
    C0110     R0008     1
    C0110     R0019     1
    C0110     R0104     14
    C0110     R0185     490
    C0111     R0008     1
    C0111     R0020     1
    C0111     R0105     14
    C0111     R0185     449
    C0112     R0008     1
    C0112     R0021     1
    C0112     R0106     14
    C0112     R0185     307
    C0113     R0008     1
    C0113     R0023     1
    C0113     R0107     14
    C0113     R0185     57
    C0114     R0008     1
    C0114     R0024     1
    C0114     R0108     14
    C0114     R0185     120
    C0115     R0008     1
    C0115     R0025     1
    C0115     R0109     14
    C0115     R0185     881
    C0116     R0008     1
    C0116     R0026     1
    C0116     R0110     14
    C0116     R0185     1256
    C0117     R0008     1
    C0117     R0027     1
    C0117     R0111     14
    C0117     R0185     1325
    C0118     R0008     1
    C0118     R0028     1
    C0118     R0112     14
    C0118     R0185     934
    C0119     R0009     1
    C0119     R0015     1
    C0119     R0185     5742
    C0120     R0009     1
    C0120     R0016     1
    C0120     R0113     14
    C0120     R0185     4029
    C0121     R0009     1
    C0121     R0017     1
    C0121     R0114     14
    C0121     R0185     1931
    C0122     R0009     1
    C0122     R0018     1
    C0122     R0115     14
    C0122     R0185     1331
    C0123     R0009     1
    C0123     R0019     1
    C0123     R0116     14
    C0123     R0185     552
    C0124     R0009     1
    C0124     R0020     1
    C0124     R0117     14
    C0124     R0185     511
    C0125     R0009     1
    C0125     R0021     1
    C0125     R0118     14
    C0125     R0185     369
    C0126     R0009     1
    C0126     R0022     1
    C0126     R0119     14
    C0126     R0185     57
    C0127     R0009     1
    C0127     R0024     1
    C0127     R0120     14
    C0127     R0185     63
    C0128     R0009     1
    C0128     R0025     1
    C0128     R0121     14
    C0128     R0185     884
    C0129     R0009     1
    C0129     R0026     1
    C0129     R0122     14
    C0129     R0185     1317
    C0130     R0009     1
    C0130     R0027     1
    C0130     R0123     14
    C0130     R0185     1387
    C0131     R0009     1
    C0131     R0028     1
    C0131     R0124     14
    C0131     R0185     937
    C0132     R0010     1
    C0132     R0015     1
    C0132     R0185     5804
    C0133     R0010     1
    C0133     R0016     1
    C0133     R0125     14
    C0133     R0185     4091
    C0134     R0010     1
    C0134     R0017     1
    C0134     R0126     14
    C0134     R0185     1994
    C0135     R0010     1
    C0135     R0018     1
    C0135     R0127     14
    C0135     R0185     1394
    C0136     R0010     1
    C0136     R0019     1
    C0136     R0128     14
    C0136     R0185     615
    C0137     R0010     1
    C0137     R0020     1
    C0137     R0129     14
    C0137     R0185     573
    C0138     R0010     1
    C0138     R0021     1
    C0138     R0130     14
    C0138     R0185     432
    C0139     R0010     1
    C0139     R0022     1
    C0139     R0131     14
    C0139     R0185     120
    C0140     R0010     1
    C0140     R0023     1
    C0140     R0132     14
    C0140     R0185     63
    C0141     R0010     1
    C0141     R0025     1
    C0141     R0133     14
    C0141     R0185     924
    C0142     R0010     1
    C0142     R0026     1
    C0142     R0134     14
    C0142     R0185     1380
    C0143     R0010     1
    C0143     R0027     1
    C0143     R0135     14
    C0143     R0185     1449
    C0144     R0010     1
    C0144     R0028     1
    C0144     R0136     14
    C0144     R0185     977
    C0145     R0011     1
    C0145     R0015     1
    C0145     R0185     5172
    C0146     R0011     1
    C0146     R0016     1
    C0146     R0137     14
    C0146     R0185     3459
    C0147     R0011     1
    C0147     R0017     1
    C0147     R0138     14
    C0147     R0185     1361
    C0148     R0011     1
    C0148     R0018     1
    C0148     R0139     14
    C0148     R0185     1164
    C0149     R0011     1
    C0149     R0019     1
    C0149     R0140     14
    C0149     R0185     1340
    C0150     R0011     1
    C0150     R0020     1
    C0150     R0141     14
    C0150     R0185     1299
    C0151     R0011     1
    C0151     R0021     1
    C0151     R0142     14
    C0151     R0185     1148
    C0152     R0011     1
    C0152     R0022     1
    C0152     R0143     14
    C0152     R0185     881
    C0153     R0011     1
    C0153     R0023     1
    C0153     R0144     14
    C0153     R0185     884
    C0154     R0011     1
    C0154     R0024     1
    C0154     R0145     14
    C0154     R0185     924
    C0155     R0011     1
    C0155     R0026     1
    C0155     R0146     14
    C0155     R0185     736
    C0156     R0011     1
    C0156     R0027     1
    C0156     R0147     14
    C0156     R0185     805
    C0157     R0011     1
    C0157     R0028     1
    C0157     R0148     14
    C0157     R0185     414
    C0158     R0012     1
    C0158     R0015     1
    C0158     R0185     4471
    C0159     R0012     1
    C0159     R0016     1
    C0159     R0149     14
    C0159     R0185     2758
    C0160     R0012     1
    C0160     R0017     1
    C0160     R0150     14
    C0160     R0185     660
    C0161     R0012     1
    C0161     R0018     1
    C0161     R0151     14
    C0161     R0185     459
    C0162     R0012     1
    C0162     R0019     1
    C0162     R0152     14
    C0162     R0185     1423
    C0163     R0012     1
    C0163     R0020     1
    C0163     R0153     14
    C0163     R0185     1382
    C0164     R0012     1
    C0164     R0021     1
    C0164     R0154     14
    C0164     R0185     1231
    C0165     R0012     1
    C0165     R0022     1
    C0165     R0155     14
    C0165     R0185     1256
    C0166     R0012     1
    C0166     R0023     1
    C0166     R0156     14
    C0166     R0185     1317
    C0167     R0012     1
    C0167     R0024     1
    C0167     R0157     14
    C0167     R0185     1380
    C0168     R0012     1
    C0168     R0025     1
    C0168     R0158     14
    C0168     R0185     736
    C0169     R0012     1
    C0169     R0027     1
    C0169     R0159     14
    C0169     R0185     302
    C0170     R0012     1
    C0170     R0028     1
    C0170     R0160     14
    C0170     R0185     1149
    C0171     R0013     1
    C0171     R0015     1
    C0171     R0185     4672
    C0172     R0013     1
    C0172     R0016     1
    C0172     R0161     14
    C0172     R0185     2973
    C0173     R0013     1
    C0173     R0017     1
    C0173     R0162     14
    C0173     R0185     922
    C0174     R0013     1
    C0174     R0018     1
    C0174     R0163     14
    C0174     R0185     761
    C0175     R0013     1
    C0175     R0019     1
    C0175     R0164     14
    C0175     R0185     1492
    C0176     R0013     1
    C0176     R0020     1
    C0176     R0165     14
    C0176     R0185     1451
    C0177     R0013     1
    C0177     R0021     1
    C0177     R0166     14
    C0177     R0185     1300
    C0178     R0013     1
    C0178     R0022     1
    C0178     R0167     14
    C0178     R0185     1325
    C0179     R0013     1
    C0179     R0023     1
    C0179     R0168     14
    C0179     R0185     1387
    C0180     R0013     1
    C0180     R0024     1
    C0180     R0169     14
    C0180     R0185     1449
    C0181     R0013     1
    C0181     R0025     1
    C0181     R0170     14
    C0181     R0185     805
    C0182     R0013     1
    C0182     R0026     1
    C0182     R0171     14
    C0182     R0185     302
    C0183     R0013     1
    C0183     R0028     1
    C0183     R0172     14
    C0183     R0185     1218
    C0184     R0014     1
    C0184     R0015     1
    C0184     R0185     5573
    C0185     R0014     1
    C0185     R0016     1
    C0185     R0173     14
    C0185     R0185     3860
    C0186     R0014     1
    C0186     R0017     1
    C0186     R0174     14
    C0186     R0185     1762
    C0187     R0014     1
    C0187     R0018     1
    C0187     R0175     14
    C0187     R0185     1551
    C0188     R0014     1
    C0188     R0019     1
    C0188     R0176     14
    C0188     R0185     1426
    C0189     R0014     1
    C0189     R0020     1
    C0189     R0177     14
    C0189     R0185     1385
    C0190     R0014     1
    C0190     R0021     1
    C0190     R0178     14
    C0190     R0185     1244
    C0191     R0014     1
    C0191     R0022     1
    C0191     R0179     14
    C0191     R0185     934
    C0192     R0014     1
    C0192     R0023     1
    C0192     R0180     14
    C0192     R0185     937
    C0193     R0014     1
    C0193     R0024     1
    C0193     R0181     14
    C0193     R0185     977
    C0194     R0014     1
    C0194     R0025     1
    C0194     R0182     14
    C0194     R0185     414
    C0195     R0014     1
    C0195     R0026     1
    C0195     R0183     14
    C0195     R0185     1149
    C0196     R0014     1
    C0196     R0027     1
    C0196     R0184     14
    C0196     R0185     1218
    INT1END   'MARKER'                 'INTEND'
RHS
    B         R0001     1
    B         R0002     1
    B         R0003     1
    B         R0004     1
    B         R0005     1
    B         R0006     1
    B         R0007     1
    B         R0008     1
    B         R0009     1
    B         R0010     1
    B         R0011     1
    B         R0012     1
    B         R0013     1
    B         R0014     1
    B         R0015     1
    B         R0016     1
    B         R0017     1
    B         R0018     1
    B         R0019     1
    B         R0020     1
    B         R0021     1
    B         R0022     1
    B         R0023     1
    B         R0024     1
    B         R0025     1
    B         R0026     1
    B         R0027     1
    B         R0028     1
    B         R0029     13
    B         R0030     13
    B         R0031     13
    B         R0032     13
    B         R0033     13
    B         R0034     13
    B         R0035     13
    B         R0036     13
    B         R0037     13
    B         R0038     13
    B         R0039     13
    B         R0040     13
    B         R0041     13
    B         R0042     13
    B         R0043     13
    B         R0044     13
    B         R0045     13
    B         R0046     13
    B         R0047     13
    B         R0048     13
    B         R0049     13
    B         R0050     13
    B         R0051     13
    B         R0052     13
    B         R0053     13
    B         R0054     13
    B         R0055     13
    B         R0056     13
    B         R0057     13
    B         R0058     13
    B         R0059     13
    B         R0060     13
    B         R0061     13
    B         R0062     13
    B         R0063     13
    B         R0064     13
    B         R0065     13
    B         R0066     13
    B         R0067     13
    B         R0068     13
    B         R0069     13
    B         R0070     13
    B         R0071     13
    B         R0072     13
    B         R0073     13
    B         R0074     13
    B         R0075     13
    B         R0076     13
    B         R0077     13
    B         R0078     13
    B         R0079     13
    B         R0080     13
    B         R0081     13
    B         R0082     13
    B         R0083     13
    B         R0084     13
    B         R0085     13
    B         R0086     13
    B         R0087     13
    B         R0088     13
    B         R0089     13
    B         R0090     13
    B         R0091     13
    B         R0092     13
    B         R0093     13
    B         R0094     13
    B         R0095     13
    B         R0096     13
    B         R0097     13
    B         R0098     13
    B         R0099     13
    B         R0100     13
    B         R0101     13
    B         R0102     13
    B         R0103     13
    B         R0104     13
    B         R0105     13
    B         R0106     13
    B         R0107     13
    B         R0108     13
    B         R0109     13
    B         R0110     13
    B         R0111     13
    B         R0112     13
    B         R0113     13
    B         R0114     13
    B         R0115     13
    B         R0116     13
    B         R0117     13
    B         R0118     13
    B         R0119     13
    B         R0120     13
    B         R0121     13
    B         R0122     13
    B         R0123     13
    B         R0124     13
    B         R0125     13
    B         R0126     13
    B         R0127     13
    B         R0128     13
    B         R0129     13
    B         R0130     13
    B         R0131     13
    B         R0132     13
    B         R0133     13
    B         R0134     13
    B         R0135     13
    B         R0136     13
    B         R0137     13
    B         R0138     13
    B         R0139     13
    B         R0140     13
    B         R0141     13
    B         R0142     13
    B         R0143     13
    B         R0144     13
    B         R0145     13
    B         R0146     13
    B         R0147     13
    B         R0148     13
    B         R0149     13
    B         R0150     13
    B         R0151     13
    B         R0152     13
    B         R0153     13
    B         R0154     13
    B         R0155     13
    B         R0156     13
    B         R0157     13
    B         R0158     13
    B         R0159     13
    B         R0160     13
    B         R0161     13
    B         R0162     13
    B         R0163     13
    B         R0164     13
    B         R0165     13
    B         R0166     13
    B         R0167     13
    B         R0168     13
    B         R0169     13
    B         R0170     13
    B         R0171     13
    B         R0172     13
    B         R0173     13
    B         R0174     13
    B         R0175     13
    B         R0176     13
    B         R0177     13
    B         R0178     13
    B         R0179     13
    B         R0180     13
    B         R0181     13
    B         R0182     13
    B         R0183     13
    B         R0184     13
BOUNDS
 UP BOUND     C0014     1
 UP BOUND     C0015     1
 UP BOUND     C0016     1
 UP BOUND     C0017     1
 UP BOUND     C0018     1
 UP BOUND     C0019     1
 UP BOUND     C0020     1
 UP BOUND     C0021     1
 UP BOUND     C0022     1
 UP BOUND     C0023     1
 UP BOUND     C0024     1
 UP BOUND     C0025     1
 UP BOUND     C0026     1
 UP BOUND     C0027     1
 UP BOUND     C0028     1
 UP BOUND     C0029     1
 UP BOUND     C0030     1
 UP BOUND     C0031     1
 UP BOUND     C0032     1
 UP BOUND     C0033     1
 UP BOUND     C0034     1
 UP BOUND     C0035     1
 UP BOUND     C0036     1
 UP BOUND     C0037     1
 UP BOUND     C0038     1
 UP BOUND     C0039     1
 UP BOUND     C0040     1
 UP BOUND     C0041     1
 UP BOUND     C0042     1
 UP BOUND     C0043     1
 UP BOUND     C0044     1
 UP BOUND     C0045     1
 UP BOUND     C0046     1
 UP BOUND     C0047     1
 UP BOUND     C0048     1
 UP BOUND     C0049     1
 UP BOUND     C0050     1
 UP BOUND     C0051     1
 UP BOUND     C0052     1
 UP BOUND     C0053     1
 UP BOUND     C0054     1
 UP BOUND     C0055     1
 UP BOUND     C0056     1
 UP BOUND     C0057     1
 UP BOUND     C0058     1
 UP BOUND     C0059     1
 UP BOUND     C0060     1
 UP BOUND     C0061     1
 UP BOUND     C0062     1
 UP BOUND     C0063     1
 UP BOUND     C0064     1
 UP BOUND     C0065     1
 UP BOUND     C0066     1
 UP BOUND     C0067     1
 UP BOUND     C0068     1
 UP BOUND     C0069     1
 UP BOUND     C0070     1
 UP BOUND     C0071     1
 UP BOUND     C0072     1
 UP BOUND     C0073     1
 UP BOUND     C0074     1
 UP BOUND     C0075     1
 UP BOUND     C0076     1
 UP BOUND     C0077     1
 UP BOUND     C0078     1
 UP BOUND     C0079     1
 UP BOUND     C0080     1
 UP BOUND     C0081     1
 UP BOUND     C0082     1
 UP BOUND     C0083     1
 UP BOUND     C0084     1
 UP BOUND     C0085     1
 UP BOUND     C0086     1
 UP BOUND     C0087     1
 UP BOUND     C0088     1
 UP BOUND     C0089     1
 UP BOUND     C0090     1
 UP BOUND     C0091     1
 UP BOUND     C0092     1
 UP BOUND     C0093     1
 UP BOUND     C0094     1
 UP BOUND     C0095     1
 UP BOUND     C0096     1
 UP BOUND     C0097     1
 UP BOUND     C0098     1
 UP BOUND     C0099     1
 UP BOUND     C0100     1
 UP BOUND     C0101     1
 UP BOUND     C0102     1
 UP BOUND     C0103     1
 UP BOUND     C0104     1
 UP BOUND     C0105     1
 UP BOUND     C0106     1
 UP BOUND     C0107     1
 UP BOUND     C0108     1
 UP BOUND     C0109     1
 UP BOUND     C0110     1
 UP BOUND     C0111     1
 UP BOUND     C0112     1
 UP BOUND     C0113     1
 UP BOUND     C0114     1
 UP BOUND     C0115     1
 UP BOUND     C0116     1
 UP BOUND     C0117     1
 UP BOUND     C0118     1
 UP BOUND     C0119     1
 UP BOUND     C0120     1
 UP BOUND     C0121     1
 UP BOUND     C0122     1
 UP BOUND     C0123     1
 UP BOUND     C0124     1
 UP BOUND     C0125     1
 UP BOUND     C0126     1
 UP BOUND     C0127     1
 UP BOUND     C0128     1
 UP BOUND     C0129     1
 UP BOUND     C0130     1
 UP BOUND     C0131     1
 UP BOUND     C0132     1
 UP BOUND     C0133     1
 UP BOUND     C0134     1
 UP BOUND     C0135     1
 UP BOUND     C0136     1
 UP BOUND     C0137     1
 UP BOUND     C0138     1
 UP BOUND     C0139     1
 UP BOUND     C0140     1
 UP BOUND     C0141     1
 UP BOUND     C0142     1
 UP BOUND     C0143     1
 UP BOUND     C0144     1
 UP BOUND     C0145     1
 UP BOUND     C0146     1
 UP BOUND     C0147     1
 UP BOUND     C0148     1
 UP BOUND     C0149     1
 UP BOUND     C0150     1
 UP BOUND     C0151     1
 UP BOUND     C0152     1
 UP BOUND     C0153     1
 UP BOUND     C0154     1
 UP BOUND     C0155     1
 UP BOUND     C0156     1
 UP BOUND     C0157     1
 UP BOUND     C0158     1
 UP BOUND     C0159     1
 UP BOUND     C0160     1
 UP BOUND     C0161     1
 UP BOUND     C0162     1
 UP BOUND     C0163     1
 UP BOUND     C0164     1
 UP BOUND     C0165     1
 UP BOUND     C0166     1
 UP BOUND     C0167     1
 UP BOUND     C0168     1
 UP BOUND     C0169     1
 UP BOUND     C0170     1
 UP BOUND     C0171     1
 UP BOUND     C0172     1
 UP BOUND     C0173     1
 UP BOUND     C0174     1
 UP BOUND     C0175     1
 UP BOUND     C0176     1
 UP BOUND     C0177     1
 UP BOUND     C0178     1
 UP BOUND     C0179     1
 UP BOUND     C0180     1
 UP BOUND     C0181     1
 UP BOUND     C0182     1
 UP BOUND     C0183     1
 UP BOUND     C0184     1
 UP BOUND     C0185     1
 UP BOUND     C0186     1
 UP BOUND     C0187     1
 UP BOUND     C0188     1
 UP BOUND     C0189     1
 UP BOUND     C0190     1
 UP BOUND     C0191     1
 UP BOUND     C0192     1
 UP BOUND     C0193     1
 UP BOUND     C0194     1
 UP BOUND     C0195     1
 UP BOUND     C0196     1
ENDATA
